15	4	2
1437	1437	1437	1437	
832	334	365	
954	67	68	
927	42	44	
612	108	115	
77	580	584	
824	448	474	
958	477	512	
647	482	489	
168	442	442	
676	460	467	
458	174	184	
100	624	673	
349	667	694	
597	361	385	
446	483	511	
